p cnf 11 28
-11 -9 5 0
11 -9 3 0
-11 9 1 0
11 7 -5 0
-11 -6 -5 0
-10 9 -8 0
10 -9 7 0
-10 -8 3 0
-10 -7 -6 0
10 -5 4 0
-10 -5 1 0
10 -2 1 0
9 -8 5 0
9 8 4 0
-9 -8 -3 0
9 -8 -3 0
-9 7 2 0
9 7 1 0
-8 -6 -4 0
-8 -5 4 0
-8 -4 -3 0
-8 4 1 0
-7 5 -3 0
7 4 2 0
-5 -4 -2 0
4 -3 -2 0
-4 2 1 0
3 -2 1 0
